c This Formular is generated by mcnf
c
c    horn? no 
c    forced? no 
c    mixed sat? no 
c    clause length = 3 
c
p cnf 20  91 
 -16 -18 12 0
9 16 -15 0
20 -10 17 0
17 -15 -14 0
-4 -20 7 0
14 9 -10 0
17 13 1 0
14 -3 7 0
-2 -9 -12 0
5 10 -3 0
1 -14 13 0
18 4 -10 0
16 13 -14 0
3 -1 14 0
-5 2 -8 0
-13 19 12 0
12 14 -3 0
15 -11 -16 0
-8 -7 18 0
2 -20 14 0
-6 -11 -20 0
%
0

56 45 4 23 68 81 46 24 57 38 61 45 19 9 41 43 25 75 57 30
